20
587 233 220
109 80 68
90 45 31
66 56 34
76 66 34
111 80 53
86 59 29
80 72 63
81 47 22
114 80 64
90 37 32
75 48 40
67 52 45
88 82 74
100 63 23
103 53 48
79 44 41
89 85 50
60 54 44
65 52 27
88 71 45
thpack7_41